/* Objective function */
min: +16 C1 +16 C2 +13 C3 +22 C4 +17 C5 +14 C6 +14 C7 +13 C8 +19 C9 +15 C10 +19 C11 +19 C12 +20 C13 +23 C14
 +1000 C15 +1000 C16 +1000 C18;

/* Constraints */
+C1 +C2 +C3 +C4 +C5 = 50;
+C6 +C7 +C8 +C9 +C10 = 60;
+C11 +C12 +C13 +C14 +C15 = 50;
+C16 +C17 +C18 +C19 +C20 = 50;
+C1 +C6 +C11 +C16 = 30;
+C2 +C7 +C12 +C17 = 20;
+C3 +C8 +C13 +C18 = 70;
+C4 +C9 +C14 +C19 = 30;
+C5 +C10 +C15 +C20 = 60;
